solution status: optimal solution found
objective value:                                    0
one.thingy.devices[0].thingy.v7_y                   23 	(obj:0)
one.thingy.devices[0].thingy.v7_z                   22 	(obj:0)
one.ctrl_s[2].hole_y                               21 	(obj:0)
one.ctrl_s[2].hole_z                               20 	(obj:0)
one.thingy.devices[0].thingy.v9_y                   22 	(obj:0)
one.thingy.devices[0].thingy.v9_z                   21 	(obj:0)
one.thingy.devices[0].thingy.v8_y                   22 	(obj:0)
one.thingy.devices[0].thingy.v8_z                   22 	(obj:0)
one.ctrl_s[2].flush_y                              21 	(obj:0)
one.ctrl_s[2].flush_z                              21 	(obj:0)
